(declare-fun var0 () String)
(assert (str.in.re var0 (re.++ (re.union (re.+ (str.to.re "8")) (re.* (str.to.re "999"))) (re.++ (re.+ (re.+ (str.to.re "777"))) (re.++ (re.* (re.union (str.to.re "55") (str.to.re "6"))) (re.++ (re.+ (re.+ (str.to.re "44"))) (re.++ (re.+ (re.* (str.to.re "33"))) (re.union (re.* (str.to.re "0")) (re.union (str.to.re "111") (str.to.re "22"))))))))))
(assert (not (str.in.re var0 (re.++ (re.+ (re.+ (str.to.re "88"))) (re.++ (re.+ (re.* (str.to.re "777"))) (re.++ (re.* (re.* (str.to.re "6"))) (re.++ (re.union (re.+ (str.to.re "444")) (re.* (str.to.re "5"))) (re.++ (re.union (re.+ (str.to.re "22")) (re.* (str.to.re "3"))) (re.* (re.union (str.to.re "0") (str.to.re "11")))))))))))
(check-sat)